out/production/KConstraintMultipleKnapsackProblem/zimpl/lpfiles/knapsack100nr8.lp
\ This file was automatically generated by Zimpl
\ param file := "instances/knapsack100nr8.txt";
\ param n := read file as "1n" use 1 comment "#";
\ do print n;
\ param m := read file as "1n" skip 1 use 1 comment "#";
\ do print m;
\ param k := read file as "1n" skip 2 use 1 comment "#";
\ do print k;
\ set Items := {1 to n};
\ set Knapsacks := {1 to m};
\ set Capacities := {1 to k};
\ param p[Items] := read file as "1n" skip 3 use n comment "#";
\ param w[Items*Capacities] := read file as "n+" skip 3+n use n comment "#";
\ param c[Knapsacks*Capacities] := read file as "n+" skip 3+2*n use m comment "#";
\ var x[Knapsacks * Items] binary;
\ maximize profit: sum <i> in Knapsacks: sum <j> in Items: p[j]* x[i,j];
\ subto cap: forall <i> in Knapsacks: forall <h> in Capacities: sum <j> in Items: w[j,h]*x[i,j] <= c[i,h];
\ subto one: forall <j> in Items: sum <i> in Knapsacks: x[i,j] <= 1;
\Problem name: zimplfiles/knapsack100nr8.zpl
Maximize
 profit:  +250 x#1#1 +234 x#1#2 +490 x#1#3 +433 x#1#4 +148 x#1#5 +538 x#1#6
  +351 x#1#7 +370 x#1#8 +933 x#1#9 +103 x#1#10 +868 x#1#11 +47 x#1#12
  +622 x#1#13 +47 x#1#14 +464 x#1#15 +448 x#1#16 +673 x#1#17 +568 x#1#18
  +842 x#1#19 +770 x#1#20 +131 x#1#21 +68 x#1#22 +209 x#1#23 +448 x#1#24
  +357 x#1#25 +787 x#1#26 +4 x#1#27 +283 x#1#28 +551 x#1#29 +776 x#1#30
  +153 x#1#31 +817 x#1#32 +795 x#1#33 +348 x#1#34 +524 x#1#35 +506 x#1#36
  +826 x#1#37 +713 x#1#38 +734 x#1#39 +718 x#1#40 +622 x#1#41 +830 x#1#42
  +48 x#1#43 +475 x#1#44 +509 x#1#45 +106 x#1#46 +642 x#1#47 +956 x#1#48
  +542 x#1#49 +764 x#1#50 +844 x#1#51 +859 x#1#52 +170 x#1#53 +445 x#1#54
  +312 x#1#55 +839 x#1#56 +745 x#1#57 +840 x#1#58 +115 x#1#59 +282 x#1#60
  +118 x#1#61 +922 x#1#62 +335 x#1#63 +50 x#1#64 +42 x#1#65 +899 x#1#66
  +389 x#1#67 +559 x#1#68 +321 x#1#69 +223 x#1#70 +940 x#1#71 +740 x#1#72
  +948 x#1#73 +686 x#1#74 +257 x#1#75 +784 x#1#76 +348 x#1#77 +254 x#1#78
  +930 x#1#79 +220 x#1#80 +294 x#1#81 +890 x#1#82 +691 x#1#83 +56 x#1#84
  +160 x#1#85 +867 x#1#86 +388 x#1#87 +63 x#1#88 +80 x#1#89 +332 x#1#90
  +613 x#1#91 +471 x#1#92 +76 x#1#93 +364 x#1#94 +143 x#1#95 +965 x#1#96
  +922 x#1#97 +116 x#1#98 +769 x#1#99 +494 x#1#100 +250 x#2#1 +234 x#2#2
  +490 x#2#3 +433 x#2#4 +148 x#2#5 +538 x#2#6 +351 x#2#7 +370 x#2#8
  +933 x#2#9 +103 x#2#10 +868 x#2#11 +47 x#2#12 +622 x#2#13 +47 x#2#14
  +464 x#2#15 +448 x#2#16 +673 x#2#17 +568 x#2#18 +842 x#2#19 +770 x#2#20
  +131 x#2#21 +68 x#2#22 +209 x#2#23 +448 x#2#24 +357 x#2#25 +787 x#2#26
  +4 x#2#27 +283 x#2#28 +551 x#2#29 +776 x#2#30 +153 x#2#31 +817 x#2#32
  +795 x#2#33 +348 x#2#34 +524 x#2#35 +506 x#2#36 +826 x#2#37 +713 x#2#38
  +734 x#2#39 +718 x#2#40 +622 x#2#41 +830 x#2#42 +48 x#2#43 +475 x#2#44
  +509 x#2#45 +106 x#2#46 +642 x#2#47 +956 x#2#48 +542 x#2#49 +764 x#2#50
  +844 x#2#51 +859 x#2#52 +170 x#2#53 +445 x#2#54 +312 x#2#55 +839 x#2#56
  +745 x#2#57 +840 x#2#58 +115 x#2#59 +282 x#2#60 +118 x#2#61 +922 x#2#62
  +335 x#2#63 +50 x#2#64 +42 x#2#65 +899 x#2#66 +389 x#2#67 +559 x#2#68
  +321 x#2#69 +223 x#2#70 +940 x#2#71 +740 x#2#72 +948 x#2#73 +686 x#2#74
  +257 x#2#75 +784 x#2#76 +348 x#2#77 +254 x#2#78 +930 x#2#79 +220 x#2#80
  +294 x#2#81 +890 x#2#82 +691 x#2#83 +56 x#2#84 +160 x#2#85 +867 x#2#86
  +388 x#2#87 +63 x#2#88 +80 x#2#89 +332 x#2#90 +613 x#2#91 +471 x#2#92
  +76 x#2#93 +364 x#2#94 +143 x#2#95 +965 x#2#96 +922 x#2#97 +116 x#2#98
  +769 x#2#99 +494 x#2#100 +250 x#3#1 +234 x#3#2 +490 x#3#3 +433 x#3#4
  +148 x#3#5 +538 x#3#6 +351 x#3#7 +370 x#3#8 +933 x#3#9 +103 x#3#10
  +868 x#3#11 +47 x#3#12 +622 x#3#13 +47 x#3#14 +464 x#3#15 +448 x#3#16
  +673 x#3#17 +568 x#3#18 +842 x#3#19 +770 x#3#20 +131 x#3#21 +68 x#3#22
  +209 x#3#23 +448 x#3#24 +357 x#3#25 +787 x#3#26 +4 x#3#27 +283 x#3#28
  +551 x#3#29 +776 x#3#30 +153 x#3#31 +817 x#3#32 +795 x#3#33 +348 x#3#34
  +524 x#3#35 +506 x#3#36 +826 x#3#37 +713 x#3#38 +734 x#3#39 +718 x#3#40
  +622 x#3#41 +830 x#3#42 +48 x#3#43 +475 x#3#44 +509 x#3#45 +106 x#3#46
  +642 x#3#47 +956 x#3#48 +542 x#3#49 +764 x#3#50 +844 x#3#51 +859 x#3#52
  +170 x#3#53 +445 x#3#54 +312 x#3#55 +839 x#3#56 +745 x#3#57 +840 x#3#58
  +115 x#3#59 +282 x#3#60 +118 x#3#61 +922 x#3#62 +335 x#3#63 +50 x#3#64
  +42 x#3#65 +899 x#3#66 +389 x#3#67 +559 x#3#68 +321 x#3#69 +223 x#3#70
  +940 x#3#71 +740 x#3#72 +948 x#3#73 +686 x#3#74 +257 x#3#75 +784 x#3#76
  +348 x#3#77 +254 x#3#78 +930 x#3#79 +220 x#3#80 +294 x#3#81 +890 x#3#82
  +691 x#3#83 +56 x#3#84 +160 x#3#85 +867 x#3#86 +388 x#3#87 +63 x#3#88
  +80 x#3#89 +332 x#3#90 +613 x#3#91 +471 x#3#92 +76 x#3#93 +364 x#3#94
  +143 x#3#95 +965 x#3#96 +922 x#3#97 +116 x#3#98 +769 x#3#99 +494 x#3#100
  +250 x#4#1 +234 x#4#2 +490 x#4#3 +433 x#4#4 +148 x#4#5 +538 x#4#6
  +351 x#4#7 +370 x#4#8 +933 x#4#9 +103 x#4#10 +868 x#4#11 +47 x#4#12
  +622 x#4#13 +47 x#4#14 +464 x#4#15 +448 x#4#16 +673 x#4#17 +568 x#4#18
  +842 x#4#19 +770 x#4#20 +131 x#4#21 +68 x#4#22 +209 x#4#23 +448 x#4#24
  +357 x#4#25 +787 x#4#26 +4 x#4#27 +283 x#4#28 +551 x#4#29 +776 x#4#30
  +153 x#4#31 +817 x#4#32 +795 x#4#33 +348 x#4#34 +524 x#4#35 +506 x#4#36
  +826 x#4#37 +713 x#4#38 +734 x#4#39 +718 x#4#40 +622 x#4#41 +830 x#4#42
  +48 x#4#43 +475 x#4#44 +509 x#4#45 +106 x#4#46 +642 x#4#47 +956 x#4#48
  +542 x#4#49 +764 x#4#50 +844 x#4#51 +859 x#4#52 +170 x#4#53 +445 x#4#54
  +312 x#4#55 +839 x#4#56 +745 x#4#57 +840 x#4#58 +115 x#4#59 +282 x#4#60
  +118 x#4#61 +922 x#4#62 +335 x#4#63 +50 x#4#64 +42 x#4#65 +899 x#4#66
  +389 x#4#67 +559 x#4#68 +321 x#4#69 +223 x#4#70 +940 x#4#71 +740 x#4#72
  +948 x#4#73 +686 x#4#74 +257 x#4#75 +784 x#4#76 +348 x#4#77 +254 x#4#78
  +930 x#4#79 +220 x#4#80 +294 x#4#81 +890 x#4#82 +691 x#4#83 +56 x#4#84
  +160 x#4#85 +867 x#4#86 +388 x#4#87 +63 x#4#88 +80 x#4#89 +332 x#4#90
  +613 x#4#91 +471 x#4#92 +76 x#4#93 +364 x#4#94 +143 x#4#95 +965 x#4#96
  +922 x#4#97 +116 x#4#98 +769 x#4#99 +494 x#4#100 +250 x#5#1 +234 x#5#2
  +490 x#5#3 +433 x#5#4 +148 x#5#5 +538 x#5#6 +351 x#5#7 +370 x#5#8
  +933 x#5#9 +103 x#5#10 +868 x#5#11 +47 x#5#12 +622 x#5#13 +47 x#5#14
  +464 x#5#15 +448 x#5#16 +673 x#5#17 +568 x#5#18 +842 x#5#19 +770 x#5#20
  +131 x#5#21 +68 x#5#22 +209 x#5#23 +448 x#5#24 +357 x#5#25 +787 x#5#26
  +4 x#5#27 +283 x#5#28 +551 x#5#29 +776 x#5#30 +153 x#5#31 +817 x#5#32
  +795 x#5#33 +348 x#5#34 +524 x#5#35 +506 x#5#36 +826 x#5#37 +713 x#5#38
  +734 x#5#39 +718 x#5#40 +622 x#5#41 +830 x#5#42 +48 x#5#43 +475 x#5#44
  +509 x#5#45 +106 x#5#46 +642 x#5#47 +956 x#5#48 +542 x#5#49 +764 x#5#50
  +844 x#5#51 +859 x#5#52 +170 x#5#53 +445 x#5#54 +312 x#5#55 +839 x#5#56
  +745 x#5#57 +840 x#5#58 +115 x#5#59 +282 x#5#60 +118 x#5#61 +922 x#5#62
  +335 x#5#63 +50 x#5#64 +42 x#5#65 +899 x#5#66 +389 x#5#67 +559 x#5#68
  +321 x#5#69 +223 x#5#70 +940 x#5#71 +740 x#5#72 +948 x#5#73 +686 x#5#74
  +257 x#5#75 +784 x#5#76 +348 x#5#77 +254 x#5#78 +930 x#5#79 +220 x#5#80
  +294 x#5#81 +890 x#5#82 +691 x#5#83 +56 x#5#84 +160 x#5#85 +867 x#5#86
  +388 x#5#87 +63 x#5#88 +80 x#5#89 +332 x#5#90 +613 x#5#91 +471 x#5#92
  +76 x#5#93 +364 x#5#94 +143 x#5#95 +965 x#5#96 +922 x#5#97 +116 x#5#98
  +769 x#5#99 +494 x#5#100
Subject to
 cap_1:
  +856 x#1#100 +367 x#1#99 +991 x#1#98 +371 x#1#97 +849 x#1#96 +470 x#1#95
  +184 x#1#94 +813 x#1#93 +848 x#1#92 +143 x#1#91 +574 x#1#90 +343 x#1#89
  +506 x#1#88 +730 x#1#87 +266 x#1#86 +76 x#1#85 +111 x#1#84 +857 x#1#83
  +167 x#1#82 +602 x#1#81 +551 x#1#80 +761 x#1#79 +886 x#1#78 +290 x#1#77
  +363 x#1#76 +780 x#1#75 +521 x#1#74 +113 x#1#73 +191 x#1#72 +297 x#1#71
  +464 x#1#70 +149 x#1#69 +708 x#1#68 +393 x#1#67 +353 x#1#66 +135 x#1#65
  +915 x#1#64 +862 x#1#63 +570 x#1#62 +34 x#1#61 +717 x#1#60 +323 x#1#59
  +137 x#1#58 +470 x#1#57 +46 x#1#56 +859 x#1#55 +620 x#1#54 +483 x#1#53
  +89 x#1#52 +487 x#1#51 +611 x#1#50 +61 x#1#49 +735 x#1#48 +855 x#1#47
  +162 x#1#46 +761 x#1#45 +768 x#1#44 +116 x#1#43 +308 x#1#42 +898 x#1#41
  +563 x#1#40 +384 x#1#39 +195 x#1#38 +755 x#1#37 +706 x#1#36 +611 x#1#35
  +995 x#1#34 +537 x#1#33 +173 x#1#32 +460 x#1#31 +837 x#1#30 +413 x#1#29
  +600 x#1#28 +512 x#1#27 +529 x#1#26 +515 x#1#25 +24 x#1#24 +242 x#1#23
  +92 x#1#22 +770 x#1#21 +647 x#1#20 +503 x#1#19 +273 x#1#18 +48 x#1#17
  +952 x#1#16 +396 x#1#15 +898 x#1#14 +281 x#1#13 +278 x#1#12 +751 x#1#11
  +334 x#1#10 +84 x#1#9 +486 x#1#8 +832 x#1#7 +966 x#1#6 +667 x#1#5
  +188 x#1#4 +410 x#1#3 +489 x#1#2 +397 x#1#1 <= 3307
 cap_2:
  +296 x#1#100 +789 x#1#99 +847 x#1#98 +466 x#1#97 +63 x#1#96 +457 x#1#95
  +763 x#1#94 +493 x#1#93 +390 x#1#92 +353 x#1#91 +296 x#1#90 +675 x#1#89
  +258 x#1#88 +934 x#1#87 +552 x#1#86 +550 x#1#85 +397 x#1#84 +853 x#1#83
  +769 x#1#82 +874 x#1#81 +564 x#1#80 +218 x#1#79 +636 x#1#78 +307 x#1#77
  +573 x#1#76 +930 x#1#75 +501 x#1#74 +328 x#1#73 +67 x#1#72 +770 x#1#71
  +272 x#1#70 +826 x#1#69 +760 x#1#68 +221 x#1#67 +309 x#1#66 +341 x#1#65
  +230 x#1#64 +993 x#1#63 +240 x#1#62 +601 x#1#61 +786 x#1#60 +713 x#1#59
  +863 x#1#58 +737 x#1#57 +917 x#1#56 +447 x#1#55 +728 x#1#54 +962 x#1#53
  +321 x#1#52 +209 x#1#51 +718 x#1#50 +599 x#1#49 +340 x#1#48 +739 x#1#47
  +73 x#1#46 +424 x#1#45 +596 x#1#44 +669 x#1#43 +832 x#1#42 +26 x#1#41
  +656 x#1#40 +106 x#1#39 +333 x#1#38 +681 x#1#37 +207 x#1#36 +409 x#1#35
  +987 x#1#34 +481 x#1#33 +104 x#1#32 +584 x#1#31 +733 x#1#30 +747 x#1#29
  +597 x#1#28 +403 x#1#27 +623 x#1#26 +509 x#1#25 +781 x#1#24 +819 x#1#23
  +730 x#1#22 +201 x#1#21 +13 x#1#20 +107 x#1#19 +670 x#1#18 +463 x#1#17
  +394 x#1#16 +125 x#1#15 +721 x#1#14 +229 x#1#13 +717 x#1#12 +938 x#1#11
  +558 x#1#10 +540 x#1#9 +764 x#1#8 +576 x#1#7 +388 x#1#6 +814 x#1#5
  +841 x#1#4 +229 x#1#3 +701 x#1#2 +914 x#1#1 <= 2820
 cap_3:
  +856 x#2#100 +367 x#2#99 +991 x#2#98 +371 x#2#97 +849 x#2#96 +470 x#2#95
  +184 x#2#94 +813 x#2#93 +848 x#2#92 +143 x#2#91 +574 x#2#90 +343 x#2#89
  +506 x#2#88 +730 x#2#87 +266 x#2#86 +76 x#2#85 +111 x#2#84 +857 x#2#83
  +167 x#2#82 +602 x#2#81 +551 x#2#80 +761 x#2#79 +886 x#2#78 +290 x#2#77
  +363 x#2#76 +780 x#2#75 +521 x#2#74 +113 x#2#73 +191 x#2#72 +297 x#2#71
  +464 x#2#70 +149 x#2#69 +708 x#2#68 +393 x#2#67 +353 x#2#66 +135 x#2#65
  +915 x#2#64 +862 x#2#63 +570 x#2#62 +34 x#2#61 +717 x#2#60 +323 x#2#59
  +137 x#2#58 +470 x#2#57 +46 x#2#56 +859 x#2#55 +620 x#2#54 +483 x#2#53
  +89 x#2#52 +487 x#2#51 +611 x#2#50 +61 x#2#49 +735 x#2#48 +855 x#2#47
  +162 x#2#46 +761 x#2#45 +768 x#2#44 +116 x#2#43 +308 x#2#42 +898 x#2#41
  +563 x#2#40 +384 x#2#39 +195 x#2#38 +755 x#2#37 +706 x#2#36 +611 x#2#35
  +995 x#2#34 +537 x#2#33 +173 x#2#32 +460 x#2#31 +837 x#2#30 +413 x#2#29
  +600 x#2#28 +512 x#2#27 +529 x#2#26 +515 x#2#25 +24 x#2#24 +242 x#2#23
  +92 x#2#22 +770 x#2#21 +647 x#2#20 +503 x#2#19 +273 x#2#18 +48 x#2#17
  +952 x#2#16 +396 x#2#15 +898 x#2#14 +281 x#2#13 +278 x#2#12 +751 x#2#11
  +334 x#2#10 +84 x#2#9 +486 x#2#8 +832 x#2#7 +966 x#2#6 +667 x#2#5
  +188 x#2#4 +410 x#2#3 +489 x#2#2 +397 x#2#1 <= 3587
 cap_4:
  +296 x#2#100 +789 x#2#99 +847 x#2#98 +466 x#2#97 +63 x#2#96 +457 x#2#95
  +763 x#2#94 +493 x#2#93 +390 x#2#92 +353 x#2#91 +296 x#2#90 +675 x#2#89
  +258 x#2#88 +934 x#2#87 +552 x#2#86 +550 x#2#85 +397 x#2#84 +853 x#2#83
  +769 x#2#82 +874 x#2#81 +564 x#2#80 +218 x#2#79 +636 x#2#78 +307 x#2#77
  +573 x#2#76 +930 x#2#75 +501 x#2#74 +328 x#2#73 +67 x#2#72 +770 x#2#71
  +272 x#2#70 +826 x#2#69 +760 x#2#68 +221 x#2#67 +309 x#2#66 +341 x#2#65
  +230 x#2#64 +993 x#2#63 +240 x#2#62 +601 x#2#61 +786 x#2#60 +713 x#2#59
  +863 x#2#58 +737 x#2#57 +917 x#2#56 +447 x#2#55 +728 x#2#54 +962 x#2#53
  +321 x#2#52 +209 x#2#51 +718 x#2#50 +599 x#2#49 +340 x#2#48 +739 x#2#47
  +73 x#2#46 +424 x#2#45 +596 x#2#44 +669 x#2#43 +832 x#2#42 +26 x#2#41
  +656 x#2#40 +106 x#2#39 +333 x#2#38 +681 x#2#37 +207 x#2#36 +409 x#2#35
  +987 x#2#34 +481 x#2#33 +104 x#2#32 +584 x#2#31 +733 x#2#30 +747 x#2#29
  +597 x#2#28 +403 x#2#27 +623 x#2#26 +509 x#2#25 +781 x#2#24 +819 x#2#23
  +730 x#2#22 +201 x#2#21 +13 x#2#20 +107 x#2#19 +670 x#2#18 +463 x#2#17
  +394 x#2#16 +125 x#2#15 +721 x#2#14 +229 x#2#13 +717 x#2#12 +938 x#2#11
  +558 x#2#10 +540 x#2#9 +764 x#2#8 +576 x#2#7 +388 x#2#6 +814 x#2#5
  +841 x#2#4 +229 x#2#3 +701 x#2#2 +914 x#2#1 <= 2810
 cap_5:
  +856 x#3#100 +367 x#3#99 +991 x#3#98 +371 x#3#97 +849 x#3#96 +470 x#3#95
  +184 x#3#94 +813 x#3#93 +848 x#3#92 +143 x#3#91 +574 x#3#90 +343 x#3#89
  +506 x#3#88 +730 x#3#87 +266 x#3#86 +76 x#3#85 +111 x#3#84 +857 x#3#83
  +167 x#3#82 +602 x#3#81 +551 x#3#80 +761 x#3#79 +886 x#3#78 +290 x#3#77
  +363 x#3#76 +780 x#3#75 +521 x#3#74 +113 x#3#73 +191 x#3#72 +297 x#3#71
  +464 x#3#70 +149 x#3#69 +708 x#3#68 +393 x#3#67 +353 x#3#66 +135 x#3#65
  +915 x#3#64 +862 x#3#63 +570 x#3#62 +34 x#3#61 +717 x#3#60 +323 x#3#59
  +137 x#3#58 +470 x#3#57 +46 x#3#56 +859 x#3#55 +620 x#3#54 +483 x#3#53
  +89 x#3#52 +487 x#3#51 +611 x#3#50 +61 x#3#49 +735 x#3#48 +855 x#3#47
  +162 x#3#46 +761 x#3#45 +768 x#3#44 +116 x#3#43 +308 x#3#42 +898 x#3#41
  +563 x#3#40 +384 x#3#39 +195 x#3#38 +755 x#3#37 +706 x#3#36 +611 x#3#35
  +995 x#3#34 +537 x#3#33 +173 x#3#32 +460 x#3#31 +837 x#3#30 +413 x#3#29
  +600 x#3#28 +512 x#3#27 +529 x#3#26 +515 x#3#25 +24 x#3#24 +242 x#3#23
  +92 x#3#22 +770 x#3#21 +647 x#3#20 +503 x#3#19 +273 x#3#18 +48 x#3#17
  +952 x#3#16 +396 x#3#15 +898 x#3#14 +281 x#3#13 +278 x#3#12 +751 x#3#11
  +334 x#3#10 +84 x#3#9 +486 x#3#8 +832 x#3#7 +966 x#3#6 +667 x#3#5
  +188 x#3#4 +410 x#3#3 +489 x#3#2 +397 x#3#1 <= 2291
 cap_6:
  +296 x#3#100 +789 x#3#99 +847 x#3#98 +466 x#3#97 +63 x#3#96 +457 x#3#95
  +763 x#3#94 +493 x#3#93 +390 x#3#92 +353 x#3#91 +296 x#3#90 +675 x#3#89
  +258 x#3#88 +934 x#3#87 +552 x#3#86 +550 x#3#85 +397 x#3#84 +853 x#3#83
  +769 x#3#82 +874 x#3#81 +564 x#3#80 +218 x#3#79 +636 x#3#78 +307 x#3#77
  +573 x#3#76 +930 x#3#75 +501 x#3#74 +328 x#3#73 +67 x#3#72 +770 x#3#71
  +272 x#3#70 +826 x#3#69 +760 x#3#68 +221 x#3#67 +309 x#3#66 +341 x#3#65
  +230 x#3#64 +993 x#3#63 +240 x#3#62 +601 x#3#61 +786 x#3#60 +713 x#3#59
  +863 x#3#58 +737 x#3#57 +917 x#3#56 +447 x#3#55 +728 x#3#54 +962 x#3#53
  +321 x#3#52 +209 x#3#51 +718 x#3#50 +599 x#3#49 +340 x#3#48 +739 x#3#47
  +73 x#3#46 +424 x#3#45 +596 x#3#44 +669 x#3#43 +832 x#3#42 +26 x#3#41
  +656 x#3#40 +106 x#3#39 +333 x#3#38 +681 x#3#37 +207 x#3#36 +409 x#3#35
  +987 x#3#34 +481 x#3#33 +104 x#3#32 +584 x#3#31 +733 x#3#30 +747 x#3#29
  +597 x#3#28 +403 x#3#27 +623 x#3#26 +509 x#3#25 +781 x#3#24 +819 x#3#23
  +730 x#3#22 +201 x#3#21 +13 x#3#20 +107 x#3#19 +670 x#3#18 +463 x#3#17
  +394 x#3#16 +125 x#3#15 +721 x#3#14 +229 x#3#13 +717 x#3#12 +938 x#3#11
  +558 x#3#10 +540 x#3#9 +764 x#3#8 +576 x#3#7 +388 x#3#6 +814 x#3#5
  +841 x#3#4 +229 x#3#3 +701 x#3#2 +914 x#3#1 <= 4024
 cap_7:
  +856 x#4#100 +367 x#4#99 +991 x#4#98 +371 x#4#97 +849 x#4#96 +470 x#4#95
  +184 x#4#94 +813 x#4#93 +848 x#4#92 +143 x#4#91 +574 x#4#90 +343 x#4#89
  +506 x#4#88 +730 x#4#87 +266 x#4#86 +76 x#4#85 +111 x#4#84 +857 x#4#83
  +167 x#4#82 +602 x#4#81 +551 x#4#80 +761 x#4#79 +886 x#4#78 +290 x#4#77
  +363 x#4#76 +780 x#4#75 +521 x#4#74 +113 x#4#73 +191 x#4#72 +297 x#4#71
  +464 x#4#70 +149 x#4#69 +708 x#4#68 +393 x#4#67 +353 x#4#66 +135 x#4#65
  +915 x#4#64 +862 x#4#63 +570 x#4#62 +34 x#4#61 +717 x#4#60 +323 x#4#59
  +137 x#4#58 +470 x#4#57 +46 x#4#56 +859 x#4#55 +620 x#4#54 +483 x#4#53
  +89 x#4#52 +487 x#4#51 +611 x#4#50 +61 x#4#49 +735 x#4#48 +855 x#4#47
  +162 x#4#46 +761 x#4#45 +768 x#4#44 +116 x#4#43 +308 x#4#42 +898 x#4#41
  +563 x#4#40 +384 x#4#39 +195 x#4#38 +755 x#4#37 +706 x#4#36 +611 x#4#35
  +995 x#4#34 +537 x#4#33 +173 x#4#32 +460 x#4#31 +837 x#4#30 +413 x#4#29
  +600 x#4#28 +512 x#4#27 +529 x#4#26 +515 x#4#25 +24 x#4#24 +242 x#4#23
  +92 x#4#22 +770 x#4#21 +647 x#4#20 +503 x#4#19 +273 x#4#18 +48 x#4#17
  +952 x#4#16 +396 x#4#15 +898 x#4#14 +281 x#4#13 +278 x#4#12 +751 x#4#11
  +334 x#4#10 +84 x#4#9 +486 x#4#8 +832 x#4#7 +966 x#4#6 +667 x#4#5
  +188 x#4#4 +410 x#4#3 +489 x#4#2 +397 x#4#1 <= 2916
 cap_8:
  +296 x#4#100 +789 x#4#99 +847 x#4#98 +466 x#4#97 +63 x#4#96 +457 x#4#95
  +763 x#4#94 +493 x#4#93 +390 x#4#92 +353 x#4#91 +296 x#4#90 +675 x#4#89
  +258 x#4#88 +934 x#4#87 +552 x#4#86 +550 x#4#85 +397 x#4#84 +853 x#4#83
  +769 x#4#82 +874 x#4#81 +564 x#4#80 +218 x#4#79 +636 x#4#78 +307 x#4#77
  +573 x#4#76 +930 x#4#75 +501 x#4#74 +328 x#4#73 +67 x#4#72 +770 x#4#71
  +272 x#4#70 +826 x#4#69 +760 x#4#68 +221 x#4#67 +309 x#4#66 +341 x#4#65
  +230 x#4#64 +993 x#4#63 +240 x#4#62 +601 x#4#61 +786 x#4#60 +713 x#4#59
  +863 x#4#58 +737 x#4#57 +917 x#4#56 +447 x#4#55 +728 x#4#54 +962 x#4#53
  +321 x#4#52 +209 x#4#51 +718 x#4#50 +599 x#4#49 +340 x#4#48 +739 x#4#47
  +73 x#4#46 +424 x#4#45 +596 x#4#44 +669 x#4#43 +832 x#4#42 +26 x#4#41
  +656 x#4#40 +106 x#4#39 +333 x#4#38 +681 x#4#37 +207 x#4#36 +409 x#4#35
  +987 x#4#34 +481 x#4#33 +104 x#4#32 +584 x#4#31 +733 x#4#30 +747 x#4#29
  +597 x#4#28 +403 x#4#27 +623 x#4#26 +509 x#4#25 +781 x#4#24 +819 x#4#23
  +730 x#4#22 +201 x#4#21 +13 x#4#20 +107 x#4#19 +670 x#4#18 +463 x#4#17
  +394 x#4#16 +125 x#4#15 +721 x#4#14 +229 x#4#13 +717 x#4#12 +938 x#4#11
  +558 x#4#10 +540 x#4#9 +764 x#4#8 +576 x#4#7 +388 x#4#6 +814 x#4#5
  +841 x#4#4 +229 x#4#3 +701 x#4#2 +914 x#4#1 <= 3208
 cap_9:
  +856 x#5#100 +367 x#5#99 +991 x#5#98 +371 x#5#97 +849 x#5#96 +470 x#5#95
  +184 x#5#94 +813 x#5#93 +848 x#5#92 +143 x#5#91 +574 x#5#90 +343 x#5#89
  +506 x#5#88 +730 x#5#87 +266 x#5#86 +76 x#5#85 +111 x#5#84 +857 x#5#83
  +167 x#5#82 +602 x#5#81 +551 x#5#80 +761 x#5#79 +886 x#5#78 +290 x#5#77
  +363 x#5#76 +780 x#5#75 +521 x#5#74 +113 x#5#73 +191 x#5#72 +297 x#5#71
  +464 x#5#70 +149 x#5#69 +708 x#5#68 +393 x#5#67 +353 x#5#66 +135 x#5#65
  +915 x#5#64 +862 x#5#63 +570 x#5#62 +34 x#5#61 +717 x#5#60 +323 x#5#59
  +137 x#5#58 +470 x#5#57 +46 x#5#56 +859 x#5#55 +620 x#5#54 +483 x#5#53
  +89 x#5#52 +487 x#5#51 +611 x#5#50 +61 x#5#49 +735 x#5#48 +855 x#5#47
  +162 x#5#46 +761 x#5#45 +768 x#5#44 +116 x#5#43 +308 x#5#42 +898 x#5#41
  +563 x#5#40 +384 x#5#39 +195 x#5#38 +755 x#5#37 +706 x#5#36 +611 x#5#35
  +995 x#5#34 +537 x#5#33 +173 x#5#32 +460 x#5#31 +837 x#5#30 +413 x#5#29
  +600 x#5#28 +512 x#5#27 +529 x#5#26 +515 x#5#25 +24 x#5#24 +242 x#5#23
  +92 x#5#22 +770 x#5#21 +647 x#5#20 +503 x#5#19 +273 x#5#18 +48 x#5#17
  +952 x#5#16 +396 x#5#15 +898 x#5#14 +281 x#5#13 +278 x#5#12 +751 x#5#11
  +334 x#5#10 +84 x#5#9 +486 x#5#8 +832 x#5#7 +966 x#5#6 +667 x#5#5
  +188 x#5#4 +410 x#5#3 +489 x#5#2 +397 x#5#1 <= 10997
 cap_10:
  +296 x#5#100 +789 x#5#99 +847 x#5#98 +466 x#5#97 +63 x#5#96 +457 x#5#95
  +763 x#5#94 +493 x#5#93 +390 x#5#92 +353 x#5#91 +296 x#5#90 +675 x#5#89
  +258 x#5#88 +934 x#5#87 +552 x#5#86 +550 x#5#85 +397 x#5#84 +853 x#5#83
  +769 x#5#82 +874 x#5#81 +564 x#5#80 +218 x#5#79 +636 x#5#78 +307 x#5#77
  +573 x#5#76 +930 x#5#75 +501 x#5#74 +328 x#5#73 +67 x#5#72 +770 x#5#71
  +272 x#5#70 +826 x#5#69 +760 x#5#68 +221 x#5#67 +309 x#5#66 +341 x#5#65
  +230 x#5#64 +993 x#5#63 +240 x#5#62 +601 x#5#61 +786 x#5#60 +713 x#5#59
  +863 x#5#58 +737 x#5#57 +917 x#5#56 +447 x#5#55 +728 x#5#54 +962 x#5#53
  +321 x#5#52 +209 x#5#51 +718 x#5#50 +599 x#5#49 +340 x#5#48 +739 x#5#47
  +73 x#5#46 +424 x#5#45 +596 x#5#44 +669 x#5#43 +832 x#5#42 +26 x#5#41
  +656 x#5#40 +106 x#5#39 +333 x#5#38 +681 x#5#37 +207 x#5#36 +409 x#5#35
  +987 x#5#34 +481 x#5#33 +104 x#5#32 +584 x#5#31 +733 x#5#30 +747 x#5#29
  +597 x#5#28 +403 x#5#27 +623 x#5#26 +509 x#5#25 +781 x#5#24 +819 x#5#23
  +730 x#5#22 +201 x#5#21 +13 x#5#20 +107 x#5#19 +670 x#5#18 +463 x#5#17
  +394 x#5#16 +125 x#5#15 +721 x#5#14 +229 x#5#13 +717 x#5#12 +938 x#5#11
  +558 x#5#10 +540 x#5#9 +764 x#5#8 +576 x#5#7 +388 x#5#6 +814 x#5#5
  +841 x#5#4 +229 x#5#3 +701 x#5#2 +914 x#5#1 <= 12298
 one_1:
  + x#5#1 + x#4#1 + x#3#1 + x#2#1 + x#1#1 <= 1
 one_2:
  + x#5#2 + x#4#2 + x#3#2 + x#2#2 + x#1#2 <= 1
 one_3:
  + x#5#3 + x#4#3 + x#3#3 + x#2#3 + x#1#3 <= 1
 one_4:
  + x#5#4 + x#4#4 + x#3#4 + x#2#4 + x#1#4 <= 1
 one_5:
  + x#5#5 + x#4#5 + x#3#5 + x#2#5 + x#1#5 <= 1
 one_6:
  + x#5#6 + x#4#6 + x#3#6 + x#2#6 + x#1#6 <= 1
 one_7:
  + x#5#7 + x#4#7 + x#3#7 + x#2#7 + x#1#7 <= 1
 one_8:
  + x#5#8 + x#4#8 + x#3#8 + x#2#8 + x#1#8 <= 1
 one_9:
  + x#5#9 + x#4#9 + x#3#9 + x#2#9 + x#1#9 <= 1
 one_10:
  + x#5#10 + x#4#10 + x#3#10 + x#2#10 + x#1#10 <= 1
 one_11:
  + x#5#11 + x#4#11 + x#3#11 + x#2#11 + x#1#11 <= 1
 one_12:
  + x#5#12 + x#4#12 + x#3#12 + x#2#12 + x#1#12 <= 1
 one_13:
  + x#5#13 + x#4#13 + x#3#13 + x#2#13 + x#1#13 <= 1
 one_14:
  + x#5#14 + x#4#14 + x#3#14 + x#2#14 + x#1#14 <= 1
 one_15:
  + x#5#15 + x#4#15 + x#3#15 + x#2#15 + x#1#15 <= 1
 one_16:
  + x#5#16 + x#4#16 + x#3#16 + x#2#16 + x#1#16 <= 1
 one_17:
  + x#5#17 + x#4#17 + x#3#17 + x#2#17 + x#1#17 <= 1
 one_18:
  + x#5#18 + x#4#18 + x#3#18 + x#2#18 + x#1#18 <= 1
 one_19:
  + x#5#19 + x#4#19 + x#3#19 + x#2#19 + x#1#19 <= 1
 one_20:
  + x#5#20 + x#4#20 + x#3#20 + x#2#20 + x#1#20 <= 1
 one_21:
  + x#5#21 + x#4#21 + x#3#21 + x#2#21 + x#1#21 <= 1
 one_22:
  + x#5#22 + x#4#22 + x#3#22 + x#2#22 + x#1#22 <= 1
 one_23:
  + x#5#23 + x#4#23 + x#3#23 + x#2#23 + x#1#23 <= 1
 one_24:
  + x#5#24 + x#4#24 + x#3#24 + x#2#24 + x#1#24 <= 1
 one_25:
  + x#5#25 + x#4#25 + x#3#25 + x#2#25 + x#1#25 <= 1
 one_26:
  + x#5#26 + x#4#26 + x#3#26 + x#2#26 + x#1#26 <= 1
 one_27:
  + x#5#27 + x#4#27 + x#3#27 + x#2#27 + x#1#27 <= 1
 one_28:
  + x#5#28 + x#4#28 + x#3#28 + x#2#28 + x#1#28 <= 1
 one_29:
  + x#5#29 + x#4#29 + x#3#29 + x#2#29 + x#1#29 <= 1
 one_30:
  + x#5#30 + x#4#30 + x#3#30 + x#2#30 + x#1#30 <= 1
 one_31:
  + x#5#31 + x#4#31 + x#3#31 + x#2#31 + x#1#31 <= 1
 one_32:
  + x#5#32 + x#4#32 + x#3#32 + x#2#32 + x#1#32 <= 1
 one_33:
  + x#5#33 + x#4#33 + x#3#33 + x#2#33 + x#1#33 <= 1
 one_34:
  + x#5#34 + x#4#34 + x#3#34 + x#2#34 + x#1#34 <= 1
 one_35:
  + x#5#35 + x#4#35 + x#3#35 + x#2#35 + x#1#35 <= 1
 one_36:
  + x#5#36 + x#4#36 + x#3#36 + x#2#36 + x#1#36 <= 1
 one_37:
  + x#5#37 + x#4#37 + x#3#37 + x#2#37 + x#1#37 <= 1
 one_38:
  + x#5#38 + x#4#38 + x#3#38 + x#2#38 + x#1#38 <= 1
 one_39:
  + x#5#39 + x#4#39 + x#3#39 + x#2#39 + x#1#39 <= 1
 one_40:
  + x#5#40 + x#4#40 + x#3#40 + x#2#40 + x#1#40 <= 1
 one_41:
  + x#5#41 + x#4#41 + x#3#41 + x#2#41 + x#1#41 <= 1
 one_42:
  + x#5#42 + x#4#42 + x#3#42 + x#2#42 + x#1#42 <= 1
 one_43:
  + x#5#43 + x#4#43 + x#3#43 + x#2#43 + x#1#43 <= 1
 one_44:
  + x#5#44 + x#4#44 + x#3#44 + x#2#44 + x#1#44 <= 1
 one_45:
  + x#5#45 + x#4#45 + x#3#45 + x#2#45 + x#1#45 <= 1
 one_46:
  + x#5#46 + x#4#46 + x#3#46 + x#2#46 + x#1#46 <= 1
 one_47:
  + x#5#47 + x#4#47 + x#3#47 + x#2#47 + x#1#47 <= 1
 one_48:
  + x#5#48 + x#4#48 + x#3#48 + x#2#48 + x#1#48 <= 1
 one_49:
  + x#5#49 + x#4#49 + x#3#49 + x#2#49 + x#1#49 <= 1
 one_50:
  + x#5#50 + x#4#50 + x#3#50 + x#2#50 + x#1#50 <= 1
 one_51:
  + x#5#51 + x#4#51 + x#3#51 + x#2#51 + x#1#51 <= 1
 one_52:
  + x#5#52 + x#4#52 + x#3#52 + x#2#52 + x#1#52 <= 1
 one_53:
  + x#5#53 + x#4#53 + x#3#53 + x#2#53 + x#1#53 <= 1
 one_54:
  + x#5#54 + x#4#54 + x#3#54 + x#2#54 + x#1#54 <= 1
 one_55:
  + x#5#55 + x#4#55 + x#3#55 + x#2#55 + x#1#55 <= 1
 one_56:
  + x#5#56 + x#4#56 + x#3#56 + x#2#56 + x#1#56 <= 1
 one_57:
  + x#5#57 + x#4#57 + x#3#57 + x#2#57 + x#1#57 <= 1
 one_58:
  + x#5#58 + x#4#58 + x#3#58 + x#2#58 + x#1#58 <= 1
 one_59:
  + x#5#59 + x#4#59 + x#3#59 + x#2#59 + x#1#59 <= 1
 one_60:
  + x#5#60 + x#4#60 + x#3#60 + x#2#60 + x#1#60 <= 1
 one_61:
  + x#5#61 + x#4#61 + x#3#61 + x#2#61 + x#1#61 <= 1
 one_62:
  + x#5#62 + x#4#62 + x#3#62 + x#2#62 + x#1#62 <= 1
 one_63:
  + x#5#63 + x#4#63 + x#3#63 + x#2#63 + x#1#63 <= 1
 one_64:
  + x#5#64 + x#4#64 + x#3#64 + x#2#64 + x#1#64 <= 1
 one_65:
  + x#5#65 + x#4#65 + x#3#65 + x#2#65 + x#1#65 <= 1
 one_66:
  + x#5#66 + x#4#66 + x#3#66 + x#2#66 + x#1#66 <= 1
 one_67:
  + x#5#67 + x#4#67 + x#3#67 + x#2#67 + x#1#67 <= 1
 one_68:
  + x#5#68 + x#4#68 + x#3#68 + x#2#68 + x#1#68 <= 1
 one_69:
  + x#5#69 + x#4#69 + x#3#69 + x#2#69 + x#1#69 <= 1
 one_70:
  + x#5#70 + x#4#70 + x#3#70 + x#2#70 + x#1#70 <= 1
 one_71:
  + x#5#71 + x#4#71 + x#3#71 + x#2#71 + x#1#71 <= 1
 one_72:
  + x#5#72 + x#4#72 + x#3#72 + x#2#72 + x#1#72 <= 1
 one_73:
  + x#5#73 + x#4#73 + x#3#73 + x#2#73 + x#1#73 <= 1
 one_74:
  + x#5#74 + x#4#74 + x#3#74 + x#2#74 + x#1#74 <= 1
 one_75:
  + x#5#75 + x#4#75 + x#3#75 + x#2#75 + x#1#75 <= 1
 one_76:
  + x#5#76 + x#4#76 + x#3#76 + x#2#76 + x#1#76 <= 1
 one_77:
  + x#5#77 + x#4#77 + x#3#77 + x#2#77 + x#1#77 <= 1
 one_78:
  + x#5#78 + x#4#78 + x#3#78 + x#2#78 + x#1#78 <= 1
 one_79:
  + x#5#79 + x#4#79 + x#3#79 + x#2#79 + x#1#79 <= 1
 one_80:
  + x#5#80 + x#4#80 + x#3#80 + x#2#80 + x#1#80 <= 1
 one_81:
  + x#5#81 + x#4#81 + x#3#81 + x#2#81 + x#1#81 <= 1
 one_82:
  + x#5#82 + x#4#82 + x#3#82 + x#2#82 + x#1#82 <= 1
 one_83:
  + x#5#83 + x#4#83 + x#3#83 + x#2#83 + x#1#83 <= 1
 one_84:
  + x#5#84 + x#4#84 + x#3#84 + x#2#84 + x#1#84 <= 1
 one_85:
  + x#5#85 + x#4#85 + x#3#85 + x#2#85 + x#1#85 <= 1
 one_86:
  + x#5#86 + x#4#86 + x#3#86 + x#2#86 + x#1#86 <= 1
 one_87:
  + x#5#87 + x#4#87 + x#3#87 + x#2#87 + x#1#87 <= 1
 one_88:
  + x#5#88 + x#4#88 + x#3#88 + x#2#88 + x#1#88 <= 1
 one_89:
  + x#5#89 + x#4#89 + x#3#89 + x#2#89 + x#1#89 <= 1
 one_90:
  + x#5#90 + x#4#90 + x#3#90 + x#2#90 + x#1#90 <= 1
 one_91:
  + x#5#91 + x#4#91 + x#3#91 + x#2#91 + x#1#91 <= 1
 one_92:
  + x#5#92 + x#4#92 + x#3#92 + x#2#92 + x#1#92 <= 1
 one_93:
  + x#5#93 + x#4#93 + x#3#93 + x#2#93 + x#1#93 <= 1
 one_94:
  + x#5#94 + x#4#94 + x#3#94 + x#2#94 + x#1#94 <= 1
 one_95:
  + x#5#95 + x#4#95 + x#3#95 + x#2#95 + x#1#95 <= 1
 one_96:
  + x#5#96 + x#4#96 + x#3#96 + x#2#96 + x#1#96 <= 1
 one_97:
  + x#5#97 + x#4#97 + x#3#97 + x#2#97 + x#1#97 <= 1
 one_98:
  + x#5#98 + x#4#98 + x#3#98 + x#2#98 + x#1#98 <= 1
 one_99:
  + x#5#99 + x#4#99 + x#3#99 + x#2#99 + x#1#99 <= 1
 one_100:
  + x#5#100 + x#4#100 + x#3#100 + x#2#100 + x#1#100 <= 1
Bounds
 0 <= x#1#1 <= 1
 0 <= x#1#2 <= 1
 0 <= x#1#3 <= 1
 0 <= x#1#4 <= 1
 0 <= x#1#5 <= 1
 0 <= x#1#6 <= 1
 0 <= x#1#7 <= 1
 0 <= x#1#8 <= 1
 0 <= x#1#9 <= 1
 0 <= x#1#10 <= 1
 0 <= x#1#11 <= 1
 0 <= x#1#12 <= 1
 0 <= x#1#13 <= 1
 0 <= x#1#14 <= 1
 0 <= x#1#15 <= 1
 0 <= x#1#16 <= 1
 0 <= x#1#17 <= 1
 0 <= x#1#18 <= 1
 0 <= x#1#19 <= 1
 0 <= x#1#20 <= 1
 0 <= x#1#21 <= 1
 0 <= x#1#22 <= 1
 0 <= x#1#23 <= 1
 0 <= x#1#24 <= 1
 0 <= x#1#25 <= 1
 0 <= x#1#26 <= 1
 0 <= x#1#27 <= 1
 0 <= x#1#28 <= 1
 0 <= x#1#29 <= 1
 0 <= x#1#30 <= 1
 0 <= x#1#31 <= 1
 0 <= x#1#32 <= 1
 0 <= x#1#33 <= 1
 0 <= x#1#34 <= 1
 0 <= x#1#35 <= 1
 0 <= x#1#36 <= 1
 0 <= x#1#37 <= 1
 0 <= x#1#38 <= 1
 0 <= x#1#39 <= 1
 0 <= x#1#40 <= 1
 0 <= x#1#41 <= 1
 0 <= x#1#42 <= 1
 0 <= x#1#43 <= 1
 0 <= x#1#44 <= 1
 0 <= x#1#45 <= 1
 0 <= x#1#46 <= 1
 0 <= x#1#47 <= 1
 0 <= x#1#48 <= 1
 0 <= x#1#49 <= 1
 0 <= x#1#50 <= 1
 0 <= x#1#51 <= 1
 0 <= x#1#52 <= 1
 0 <= x#1#53 <= 1
 0 <= x#1#54 <= 1
 0 <= x#1#55 <= 1
 0 <= x#1#56 <= 1
 0 <= x#1#57 <= 1
 0 <= x#1#58 <= 1
 0 <= x#1#59 <= 1
 0 <= x#1#60 <= 1
 0 <= x#1#61 <= 1
 0 <= x#1#62 <= 1
 0 <= x#1#63 <= 1
 0 <= x#1#64 <= 1
 0 <= x#1#65 <= 1
 0 <= x#1#66 <= 1
 0 <= x#1#67 <= 1
 0 <= x#1#68 <= 1
 0 <= x#1#69 <= 1
 0 <= x#1#70 <= 1
 0 <= x#1#71 <= 1
 0 <= x#1#72 <= 1
 0 <= x#1#73 <= 1
 0 <= x#1#74 <= 1
 0 <= x#1#75 <= 1
 0 <= x#1#76 <= 1
 0 <= x#1#77 <= 1
 0 <= x#1#78 <= 1
 0 <= x#1#79 <= 1
 0 <= x#1#80 <= 1
 0 <= x#1#81 <= 1
 0 <= x#1#82 <= 1
 0 <= x#1#83 <= 1
 0 <= x#1#84 <= 1
 0 <= x#1#85 <= 1
 0 <= x#1#86 <= 1
 0 <= x#1#87 <= 1
 0 <= x#1#88 <= 1
 0 <= x#1#89 <= 1
 0 <= x#1#90 <= 1
 0 <= x#1#91 <= 1
 0 <= x#1#92 <= 1
 0 <= x#1#93 <= 1
 0 <= x#1#94 <= 1
 0 <= x#1#95 <= 1
 0 <= x#1#96 <= 1
 0 <= x#1#97 <= 1
 0 <= x#1#98 <= 1
 0 <= x#1#99 <= 1
 0 <= x#1#100 <= 1
 0 <= x#2#1 <= 1
 0 <= x#2#2 <= 1
 0 <= x#2#3 <= 1
 0 <= x#2#4 <= 1
 0 <= x#2#5 <= 1
 0 <= x#2#6 <= 1
 0 <= x#2#7 <= 1
 0 <= x#2#8 <= 1
 0 <= x#2#9 <= 1
 0 <= x#2#10 <= 1
 0 <= x#2#11 <= 1
 0 <= x#2#12 <= 1
 0 <= x#2#13 <= 1
 0 <= x#2#14 <= 1
 0 <= x#2#15 <= 1
 0 <= x#2#16 <= 1
 0 <= x#2#17 <= 1
 0 <= x#2#18 <= 1
 0 <= x#2#19 <= 1
 0 <= x#2#20 <= 1
 0 <= x#2#21 <= 1
 0 <= x#2#22 <= 1
 0 <= x#2#23 <= 1
 0 <= x#2#24 <= 1
 0 <= x#2#25 <= 1
 0 <= x#2#26 <= 1
 0 <= x#2#27 <= 1
 0 <= x#2#28 <= 1
 0 <= x#2#29 <= 1
 0 <= x#2#30 <= 1
 0 <= x#2#31 <= 1
 0 <= x#2#32 <= 1
 0 <= x#2#33 <= 1
 0 <= x#2#34 <= 1
 0 <= x#2#35 <= 1
 0 <= x#2#36 <= 1
 0 <= x#2#37 <= 1
 0 <= x#2#38 <= 1
 0 <= x#2#39 <= 1
 0 <= x#2#40 <= 1
 0 <= x#2#41 <= 1
 0 <= x#2#42 <= 1
 0 <= x#2#43 <= 1
 0 <= x#2#44 <= 1
 0 <= x#2#45 <= 1
 0 <= x#2#46 <= 1
 0 <= x#2#47 <= 1
 0 <= x#2#48 <= 1
 0 <= x#2#49 <= 1
 0 <= x#2#50 <= 1
 0 <= x#2#51 <= 1
 0 <= x#2#52 <= 1
 0 <= x#2#53 <= 1
 0 <= x#2#54 <= 1
 0 <= x#2#55 <= 1
 0 <= x#2#56 <= 1
 0 <= x#2#57 <= 1
 0 <= x#2#58 <= 1
 0 <= x#2#59 <= 1
 0 <= x#2#60 <= 1
 0 <= x#2#61 <= 1
 0 <= x#2#62 <= 1
 0 <= x#2#63 <= 1
 0 <= x#2#64 <= 1
 0 <= x#2#65 <= 1
 0 <= x#2#66 <= 1
 0 <= x#2#67 <= 1
 0 <= x#2#68 <= 1
 0 <= x#2#69 <= 1
 0 <= x#2#70 <= 1
 0 <= x#2#71 <= 1
 0 <= x#2#72 <= 1
 0 <= x#2#73 <= 1
 0 <= x#2#74 <= 1
 0 <= x#2#75 <= 1
 0 <= x#2#76 <= 1
 0 <= x#2#77 <= 1
 0 <= x#2#78 <= 1
 0 <= x#2#79 <= 1
 0 <= x#2#80 <= 1
 0 <= x#2#81 <= 1
 0 <= x#2#82 <= 1
 0 <= x#2#83 <= 1
 0 <= x#2#84 <= 1
 0 <= x#2#85 <= 1
 0 <= x#2#86 <= 1
 0 <= x#2#87 <= 1
 0 <= x#2#88 <= 1
 0 <= x#2#89 <= 1
 0 <= x#2#90 <= 1
 0 <= x#2#91 <= 1
 0 <= x#2#92 <= 1
 0 <= x#2#93 <= 1
 0 <= x#2#94 <= 1
 0 <= x#2#95 <= 1
 0 <= x#2#96 <= 1
 0 <= x#2#97 <= 1
 0 <= x#2#98 <= 1
 0 <= x#2#99 <= 1
 0 <= x#2#100 <= 1
 0 <= x#3#1 <= 1
 0 <= x#3#2 <= 1
 0 <= x#3#3 <= 1
 0 <= x#3#4 <= 1
 0 <= x#3#5 <= 1
 0 <= x#3#6 <= 1
 0 <= x#3#7 <= 1
 0 <= x#3#8 <= 1
 0 <= x#3#9 <= 1
 0 <= x#3#10 <= 1
 0 <= x#3#11 <= 1
 0 <= x#3#12 <= 1
 0 <= x#3#13 <= 1
 0 <= x#3#14 <= 1
 0 <= x#3#15 <= 1
 0 <= x#3#16 <= 1
 0 <= x#3#17 <= 1
 0 <= x#3#18 <= 1
 0 <= x#3#19 <= 1
 0 <= x#3#20 <= 1
 0 <= x#3#21 <= 1
 0 <= x#3#22 <= 1
 0 <= x#3#23 <= 1
 0 <= x#3#24 <= 1
 0 <= x#3#25 <= 1
 0 <= x#3#26 <= 1
 0 <= x#3#27 <= 1
 0 <= x#3#28 <= 1
 0 <= x#3#29 <= 1
 0 <= x#3#30 <= 1
 0 <= x#3#31 <= 1
 0 <= x#3#32 <= 1
 0 <= x#3#33 <= 1
 0 <= x#3#34 <= 1
 0 <= x#3#35 <= 1
 0 <= x#3#36 <= 1
 0 <= x#3#37 <= 1
 0 <= x#3#38 <= 1
 0 <= x#3#39 <= 1
 0 <= x#3#40 <= 1
 0 <= x#3#41 <= 1
 0 <= x#3#42 <= 1
 0 <= x#3#43 <= 1
 0 <= x#3#44 <= 1
 0 <= x#3#45 <= 1
 0 <= x#3#46 <= 1
 0 <= x#3#47 <= 1
 0 <= x#3#48 <= 1
 0 <= x#3#49 <= 1
 0 <= x#3#50 <= 1
 0 <= x#3#51 <= 1
 0 <= x#3#52 <= 1
 0 <= x#3#53 <= 1
 0 <= x#3#54 <= 1
 0 <= x#3#55 <= 1
 0 <= x#3#56 <= 1
 0 <= x#3#57 <= 1
 0 <= x#3#58 <= 1
 0 <= x#3#59 <= 1
 0 <= x#3#60 <= 1
 0 <= x#3#61 <= 1
 0 <= x#3#62 <= 1
 0 <= x#3#63 <= 1
 0 <= x#3#64 <= 1
 0 <= x#3#65 <= 1
 0 <= x#3#66 <= 1
 0 <= x#3#67 <= 1
 0 <= x#3#68 <= 1
 0 <= x#3#69 <= 1
 0 <= x#3#70 <= 1
 0 <= x#3#71 <= 1
 0 <= x#3#72 <= 1
 0 <= x#3#73 <= 1
 0 <= x#3#74 <= 1
 0 <= x#3#75 <= 1
 0 <= x#3#76 <= 1
 0 <= x#3#77 <= 1
 0 <= x#3#78 <= 1
 0 <= x#3#79 <= 1
 0 <= x#3#80 <= 1
 0 <= x#3#81 <= 1
 0 <= x#3#82 <= 1
 0 <= x#3#83 <= 1
 0 <= x#3#84 <= 1
 0 <= x#3#85 <= 1
 0 <= x#3#86 <= 1
 0 <= x#3#87 <= 1
 0 <= x#3#88 <= 1
 0 <= x#3#89 <= 1
 0 <= x#3#90 <= 1
 0 <= x#3#91 <= 1
 0 <= x#3#92 <= 1
 0 <= x#3#93 <= 1
 0 <= x#3#94 <= 1
 0 <= x#3#95 <= 1
 0 <= x#3#96 <= 1
 0 <= x#3#97 <= 1
 0 <= x#3#98 <= 1
 0 <= x#3#99 <= 1
 0 <= x#3#100 <= 1
 0 <= x#4#1 <= 1
 0 <= x#4#2 <= 1
 0 <= x#4#3 <= 1
 0 <= x#4#4 <= 1
 0 <= x#4#5 <= 1
 0 <= x#4#6 <= 1
 0 <= x#4#7 <= 1
 0 <= x#4#8 <= 1
 0 <= x#4#9 <= 1
 0 <= x#4#10 <= 1
 0 <= x#4#11 <= 1
 0 <= x#4#12 <= 1
 0 <= x#4#13 <= 1
 0 <= x#4#14 <= 1
 0 <= x#4#15 <= 1
 0 <= x#4#16 <= 1
 0 <= x#4#17 <= 1
 0 <= x#4#18 <= 1
 0 <= x#4#19 <= 1
 0 <= x#4#20 <= 1
 0 <= x#4#21 <= 1
 0 <= x#4#22 <= 1
 0 <= x#4#23 <= 1
 0 <= x#4#24 <= 1
 0 <= x#4#25 <= 1
 0 <= x#4#26 <= 1
 0 <= x#4#27 <= 1
 0 <= x#4#28 <= 1
 0 <= x#4#29 <= 1
 0 <= x#4#30 <= 1
 0 <= x#4#31 <= 1
 0 <= x#4#32 <= 1
 0 <= x#4#33 <= 1
 0 <= x#4#34 <= 1
 0 <= x#4#35 <= 1
 0 <= x#4#36 <= 1
 0 <= x#4#37 <= 1
 0 <= x#4#38 <= 1
 0 <= x#4#39 <= 1
 0 <= x#4#40 <= 1
 0 <= x#4#41 <= 1
 0 <= x#4#42 <= 1
 0 <= x#4#43 <= 1
 0 <= x#4#44 <= 1
 0 <= x#4#45 <= 1
 0 <= x#4#46 <= 1
 0 <= x#4#47 <= 1
 0 <= x#4#48 <= 1
 0 <= x#4#49 <= 1
 0 <= x#4#50 <= 1
 0 <= x#4#51 <= 1
 0 <= x#4#52 <= 1
 0 <= x#4#53 <= 1
 0 <= x#4#54 <= 1
 0 <= x#4#55 <= 1
 0 <= x#4#56 <= 1
 0 <= x#4#57 <= 1
 0 <= x#4#58 <= 1
 0 <= x#4#59 <= 1
 0 <= x#4#60 <= 1
 0 <= x#4#61 <= 1
 0 <= x#4#62 <= 1
 0 <= x#4#63 <= 1
 0 <= x#4#64 <= 1
 0 <= x#4#65 <= 1
 0 <= x#4#66 <= 1
 0 <= x#4#67 <= 1
 0 <= x#4#68 <= 1
 0 <= x#4#69 <= 1
 0 <= x#4#70 <= 1
 0 <= x#4#71 <= 1
 0 <= x#4#72 <= 1
 0 <= x#4#73 <= 1
 0 <= x#4#74 <= 1
 0 <= x#4#75 <= 1
 0 <= x#4#76 <= 1
 0 <= x#4#77 <= 1
 0 <= x#4#78 <= 1
 0 <= x#4#79 <= 1
 0 <= x#4#80 <= 1
 0 <= x#4#81 <= 1
 0 <= x#4#82 <= 1
 0 <= x#4#83 <= 1
 0 <= x#4#84 <= 1
 0 <= x#4#85 <= 1
 0 <= x#4#86 <= 1
 0 <= x#4#87 <= 1
 0 <= x#4#88 <= 1
 0 <= x#4#89 <= 1
 0 <= x#4#90 <= 1
 0 <= x#4#91 <= 1
 0 <= x#4#92 <= 1
 0 <= x#4#93 <= 1
 0 <= x#4#94 <= 1
 0 <= x#4#95 <= 1
 0 <= x#4#96 <= 1
 0 <= x#4#97 <= 1
 0 <= x#4#98 <= 1
 0 <= x#4#99 <= 1
 0 <= x#4#100 <= 1
 0 <= x#5#1 <= 1
 0 <= x#5#2 <= 1
 0 <= x#5#3 <= 1
 0 <= x#5#4 <= 1
 0 <= x#5#5 <= 1
 0 <= x#5#6 <= 1
 0 <= x#5#7 <= 1
 0 <= x#5#8 <= 1
 0 <= x#5#9 <= 1
 0 <= x#5#10 <= 1
 0 <= x#5#11 <= 1
 0 <= x#5#12 <= 1
 0 <= x#5#13 <= 1
 0 <= x#5#14 <= 1
 0 <= x#5#15 <= 1
 0 <= x#5#16 <= 1
 0 <= x#5#17 <= 1
 0 <= x#5#18 <= 1
 0 <= x#5#19 <= 1
 0 <= x#5#20 <= 1
 0 <= x#5#21 <= 1
 0 <= x#5#22 <= 1
 0 <= x#5#23 <= 1
 0 <= x#5#24 <= 1
 0 <= x#5#25 <= 1
 0 <= x#5#26 <= 1
 0 <= x#5#27 <= 1
 0 <= x#5#28 <= 1
 0 <= x#5#29 <= 1
 0 <= x#5#30 <= 1
 0 <= x#5#31 <= 1
 0 <= x#5#32 <= 1
 0 <= x#5#33 <= 1
 0 <= x#5#34 <= 1
 0 <= x#5#35 <= 1
 0 <= x#5#36 <= 1
 0 <= x#5#37 <= 1
 0 <= x#5#38 <= 1
 0 <= x#5#39 <= 1
 0 <= x#5#40 <= 1
 0 <= x#5#41 <= 1
 0 <= x#5#42 <= 1
 0 <= x#5#43 <= 1
 0 <= x#5#44 <= 1
 0 <= x#5#45 <= 1
 0 <= x#5#46 <= 1
 0 <= x#5#47 <= 1
 0 <= x#5#48 <= 1
 0 <= x#5#49 <= 1
 0 <= x#5#50 <= 1
 0 <= x#5#51 <= 1
 0 <= x#5#52 <= 1
 0 <= x#5#53 <= 1
 0 <= x#5#54 <= 1
 0 <= x#5#55 <= 1
 0 <= x#5#56 <= 1
 0 <= x#5#57 <= 1
 0 <= x#5#58 <= 1
 0 <= x#5#59 <= 1
 0 <= x#5#60 <= 1
 0 <= x#5#61 <= 1
 0 <= x#5#62 <= 1
 0 <= x#5#63 <= 1
 0 <= x#5#64 <= 1
 0 <= x#5#65 <= 1
 0 <= x#5#66 <= 1
 0 <= x#5#67 <= 1
 0 <= x#5#68 <= 1
 0 <= x#5#69 <= 1
 0 <= x#5#70 <= 1
 0 <= x#5#71 <= 1
 0 <= x#5#72 <= 1
 0 <= x#5#73 <= 1
 0 <= x#5#74 <= 1
 0 <= x#5#75 <= 1
 0 <= x#5#76 <= 1
 0 <= x#5#77 <= 1
 0 <= x#5#78 <= 1
 0 <= x#5#79 <= 1
 0 <= x#5#80 <= 1
 0 <= x#5#81 <= 1
 0 <= x#5#82 <= 1
 0 <= x#5#83 <= 1
 0 <= x#5#84 <= 1
 0 <= x#5#85 <= 1
 0 <= x#5#86 <= 1
 0 <= x#5#87 <= 1
 0 <= x#5#88 <= 1
 0 <= x#5#89 <= 1
 0 <= x#5#90 <= 1
 0 <= x#5#91 <= 1
 0 <= x#5#92 <= 1
 0 <= x#5#93 <= 1
 0 <= x#5#94 <= 1
 0 <= x#5#95 <= 1
 0 <= x#5#96 <= 1
 0 <= x#5#97 <= 1
 0 <= x#5#98 <= 1
 0 <= x#5#99 <= 1
 0 <= x#5#100 <= 1
General
 x#1#1
 x#1#2
 x#1#3
 x#1#4
 x#1#5
 x#1#6
 x#1#7
 x#1#8
 x#1#9
 x#1#10
 x#1#11
 x#1#12
 x#1#13
 x#1#14
 x#1#15
 x#1#16
 x#1#17
 x#1#18
 x#1#19
 x#1#20
 x#1#21
 x#1#22
 x#1#23
 x#1#24
 x#1#25
 x#1#26
 x#1#27
 x#1#28
 x#1#29
 x#1#30
 x#1#31
 x#1#32
 x#1#33
 x#1#34
 x#1#35
 x#1#36
 x#1#37
 x#1#38
 x#1#39
 x#1#40
 x#1#41
 x#1#42
 x#1#43
 x#1#44
 x#1#45
 x#1#46
 x#1#47
 x#1#48
 x#1#49
 x#1#50
 x#1#51
 x#1#52
 x#1#53
 x#1#54
 x#1#55
 x#1#56
 x#1#57
 x#1#58
 x#1#59
 x#1#60
 x#1#61
 x#1#62
 x#1#63
 x#1#64
 x#1#65
 x#1#66
 x#1#67
 x#1#68
 x#1#69
 x#1#70
 x#1#71
 x#1#72
 x#1#73
 x#1#74
 x#1#75
 x#1#76
 x#1#77
 x#1#78
 x#1#79
 x#1#80
 x#1#81
 x#1#82
 x#1#83
 x#1#84
 x#1#85
 x#1#86
 x#1#87
 x#1#88
 x#1#89
 x#1#90
 x#1#91
 x#1#92
 x#1#93
 x#1#94
 x#1#95
 x#1#96
 x#1#97
 x#1#98
 x#1#99
 x#1#100
 x#2#1
 x#2#2
 x#2#3
 x#2#4
 x#2#5
 x#2#6
 x#2#7
 x#2#8
 x#2#9
 x#2#10
 x#2#11
 x#2#12
 x#2#13
 x#2#14
 x#2#15
 x#2#16
 x#2#17
 x#2#18
 x#2#19
 x#2#20
 x#2#21
 x#2#22
 x#2#23
 x#2#24
 x#2#25
 x#2#26
 x#2#27
 x#2#28
 x#2#29
 x#2#30
 x#2#31
 x#2#32
 x#2#33
 x#2#34
 x#2#35
 x#2#36
 x#2#37
 x#2#38
 x#2#39
 x#2#40
 x#2#41
 x#2#42
 x#2#43
 x#2#44
 x#2#45
 x#2#46
 x#2#47
 x#2#48
 x#2#49
 x#2#50
 x#2#51
 x#2#52
 x#2#53
 x#2#54
 x#2#55
 x#2#56
 x#2#57
 x#2#58
 x#2#59
 x#2#60
 x#2#61
 x#2#62
 x#2#63
 x#2#64
 x#2#65
 x#2#66
 x#2#67
 x#2#68
 x#2#69
 x#2#70
 x#2#71
 x#2#72
 x#2#73
 x#2#74
 x#2#75
 x#2#76
 x#2#77
 x#2#78
 x#2#79
 x#2#80
 x#2#81
 x#2#82
 x#2#83
 x#2#84
 x#2#85
 x#2#86
 x#2#87
 x#2#88
 x#2#89
 x#2#90
 x#2#91
 x#2#92
 x#2#93
 x#2#94
 x#2#95
 x#2#96
 x#2#97
 x#2#98
 x#2#99
 x#2#100
 x#3#1
 x#3#2
 x#3#3
 x#3#4
 x#3#5
 x#3#6
 x#3#7
 x#3#8
 x#3#9
 x#3#10
 x#3#11
 x#3#12
 x#3#13
 x#3#14
 x#3#15
 x#3#16
 x#3#17
 x#3#18
 x#3#19
 x#3#20
 x#3#21
 x#3#22
 x#3#23
 x#3#24
 x#3#25
 x#3#26
 x#3#27
 x#3#28
 x#3#29
 x#3#30
 x#3#31
 x#3#32
 x#3#33
 x#3#34
 x#3#35
 x#3#36
 x#3#37
 x#3#38
 x#3#39
 x#3#40
 x#3#41
 x#3#42
 x#3#43
 x#3#44
 x#3#45
 x#3#46
 x#3#47
 x#3#48
 x#3#49
 x#3#50
 x#3#51
 x#3#52
 x#3#53
 x#3#54
 x#3#55
 x#3#56
 x#3#57
 x#3#58
 x#3#59
 x#3#60
 x#3#61
 x#3#62
 x#3#63
 x#3#64
 x#3#65
 x#3#66
 x#3#67
 x#3#68
 x#3#69
 x#3#70
 x#3#71
 x#3#72
 x#3#73
 x#3#74
 x#3#75
 x#3#76
 x#3#77
 x#3#78
 x#3#79
 x#3#80
 x#3#81
 x#3#82
 x#3#83
 x#3#84
 x#3#85
 x#3#86
 x#3#87
 x#3#88
 x#3#89
 x#3#90
 x#3#91
 x#3#92
 x#3#93
 x#3#94
 x#3#95
 x#3#96
 x#3#97
 x#3#98
 x#3#99
 x#3#100
 x#4#1
 x#4#2
 x#4#3
 x#4#4
 x#4#5
 x#4#6
 x#4#7
 x#4#8
 x#4#9
 x#4#10
 x#4#11
 x#4#12
 x#4#13
 x#4#14
 x#4#15
 x#4#16
 x#4#17
 x#4#18
 x#4#19
 x#4#20
 x#4#21
 x#4#22
 x#4#23
 x#4#24
 x#4#25
 x#4#26
 x#4#27
 x#4#28
 x#4#29
 x#4#30
 x#4#31
 x#4#32
 x#4#33
 x#4#34
 x#4#35
 x#4#36
 x#4#37
 x#4#38
 x#4#39
 x#4#40
 x#4#41
 x#4#42
 x#4#43
 x#4#44
 x#4#45
 x#4#46
 x#4#47
 x#4#48
 x#4#49
 x#4#50
 x#4#51
 x#4#52
 x#4#53
 x#4#54
 x#4#55
 x#4#56
 x#4#57
 x#4#58
 x#4#59
 x#4#60
 x#4#61
 x#4#62
 x#4#63
 x#4#64
 x#4#65
 x#4#66
 x#4#67
 x#4#68
 x#4#69
 x#4#70
 x#4#71
 x#4#72
 x#4#73
 x#4#74
 x#4#75
 x#4#76
 x#4#77
 x#4#78
 x#4#79
 x#4#80
 x#4#81
 x#4#82
 x#4#83
 x#4#84
 x#4#85
 x#4#86
 x#4#87
 x#4#88
 x#4#89
 x#4#90
 x#4#91
 x#4#92
 x#4#93
 x#4#94
 x#4#95
 x#4#96
 x#4#97
 x#4#98
 x#4#99
 x#4#100
 x#5#1
 x#5#2
 x#5#3
 x#5#4
 x#5#5
 x#5#6
 x#5#7
 x#5#8
 x#5#9
 x#5#10
 x#5#11
 x#5#12
 x#5#13
 x#5#14
 x#5#15
 x#5#16
 x#5#17
 x#5#18
 x#5#19
 x#5#20
 x#5#21
 x#5#22
 x#5#23
 x#5#24
 x#5#25
 x#5#26
 x#5#27
 x#5#28
 x#5#29
 x#5#30
 x#5#31
 x#5#32
 x#5#33
 x#5#34
 x#5#35
 x#5#36
 x#5#37
 x#5#38
 x#5#39
 x#5#40
 x#5#41
 x#5#42
 x#5#43
 x#5#44
 x#5#45
 x#5#46
 x#5#47
 x#5#48
 x#5#49
 x#5#50
 x#5#51
 x#5#52
 x#5#53
 x#5#54
 x#5#55
 x#5#56
 x#5#57
 x#5#58
 x#5#59
 x#5#60
 x#5#61
 x#5#62
 x#5#63
 x#5#64
 x#5#65
 x#5#66
 x#5#67
 x#5#68
 x#5#69
 x#5#70
 x#5#71
 x#5#72
 x#5#73
 x#5#74
 x#5#75
 x#5#76
 x#5#77
 x#5#78
 x#5#79
 x#5#80
 x#5#81
 x#5#82
 x#5#83
 x#5#84
 x#5#85
 x#5#86
 x#5#87
 x#5#88
 x#5#89
 x#5#90
 x#5#91
 x#5#92
 x#5#93
 x#5#94
 x#5#95
 x#5#96
 x#5#97
 x#5#98
 x#5#99
 x#5#100
End
