src/zimpl/instances/knapsack100nr8.txt
# Nr of Items 
100
# Nr of Knapsacks 
5
# Nr of Constraints 
2
# Items profits:
250 
234 
490 
433 
148 
538 
351 
370 
933 
103 
868 
47 
622 
47 
464 
448 
673 
568 
842 
770 
131 
68 
209 
448 
357 
787 
4 
283 
551 
776 
153 
817 
795 
348 
524 
506 
826 
713 
734 
718 
622 
830 
48 
475 
509 
106 
642 
956 
542 
764 
844 
859 
170 
445 
312 
839 
745 
840 
115 
282 
118 
922 
335 
50 
42 
899 
389 
559 
321 
223 
940 
740 
948 
686 
257 
784 
348 
254 
930 
220 
294 
890 
691 
56 
160 
867 
388 
63 
80 
332 
613 
471 
76 
364 
143 
965 
922 
116 
769 
494 

# Items weights:
397 914 
489 701 
410 229 
188 841 
667 814 
966 388 
832 576 
486 764 
84 540 
334 558 
751 938 
278 717 
281 229 
898 721 
396 125 
952 394 
48 463 
273 670 
503 107 
647 13 
770 201 
92 730 
242 819 
24 781 
515 509 
529 623 
512 403 
600 597 
413 747 
837 733 
460 584 
173 104 
537 481 
995 987 
611 409 
706 207 
755 681 
195 333 
384 106 
563 656 
898 26 
308 832 
116 669 
768 596 
761 424 
162 73 
855 739 
735 340 
61 599 
611 718 
487 209 
89 321 
483 962 
620 728 
859 447 
46 917 
470 737 
137 863 
323 713 
717 786 
34 601 
570 240 
862 993 
915 230 
135 341 
353 309 
393 221 
708 760 
149 826 
464 272 
297 770 
191 67 
113 328 
521 501 
780 930 
363 573 
290 307 
886 636 
761 218 
551 564 
602 874 
167 769 
857 853 
111 397 
76 550 
266 552 
730 934 
506 258 
343 675 
574 296 
143 353 
848 390 
813 493 
184 763 
470 457 
849 63 
371 466 
991 847 
367 789 
856 296 
# Knapsacks:
3307 2820 
3587 2810 
2291 4024 
2916 3208 
10997 12298 
